170
100
7
9
38
46
36
24
6
87
2
10
34
4
17
64
29
67
16
84
15
18
49
13
37
40
68
95
66
15
20
9
10
45
12
51
67
17
23
21
29
2
61
10
43
22
68
64
2
38
56
12
2
11
95
24
12
29
16
15
14
74
29
34
37
7
93
11
31
42
5
7
91
71
23
6
56
73
33
46
23
10
1
9
32
21
26
13
55
2
63
16
67
70
74
19
19
33
5
98
43
2
86
2
31
22
1
28
23
27
20
30
13
22
3
37
10
20
50
87
76
88
38
33
14
71
26
50
67
3
24
32
41
24
18
79
25
54
11
11
31
84
1
99
13
15
12
71
14
6
3
43
63
77
14
48
90
17
100
2
50
86
58
1
73
3
76
30
3
40
28
86
